c 37_3_checker_6cl.cnf
c
c field = 37
c formula set type = 3_checker_6cl
c
p cnf 6 34
66 
68 
70 
-65 
-62 
-74 
67 
69 
71 
-64 
-63 
-75 
66 
68 
70 
-75 
-64 
-76 
67 
69 
71 
-74 
-65 
-77 
68 
70 
74 
-67 
-64 
-76 
69 
71 
75 
-66 
-65 
-77 
68 
70 
74 
-77 
-66 
-78 
69 
71 
75 
-76 
-67 
-79 
70 
74 
76 
-69 
-66 
-78 
71 
75 
77 
-68 
-67 
-79 
70 
74 
76 
-79 
-68 
-80 
71 
75 
77 
-78 
-69 
-81 
74 
76 
78 
-71 
-68 
-80 
75 
77 
79 
-70 
-69 
-81 
74 
76 
78 
-81 
-70 
-82 
75 
77 
79 
-80 
-71 
-83 
42 
102 
132 
-163 
-12 
-192 
43 
103 
133 
-162 
-13 
-193 
102 
132 
162 
-43 
-12 
-192 
103 
133 
163 
-42 
-13 
-193 
102 
132 
162 
-193 
-42 
-222 
103 
133 
163 
-192 
-43 
-223 
40 
104 
136 
-169 
-8 
-200 
41 
105 
137 
-168 
-9 
-201 
104 
136 
168 
-41 
-8 
-200 
105 
137 
169 
-40 
-9 
-201 
104 
136 
168 
-201 
-40 
-232 
105 
137 
169 
-200 
-41 
-233 
44 
100 
128 
-157 
-16 
-184 
45 
101 
129 
-156 
-17 
-185 
100 
128 
156 
-45 
-16 
-184 
101 
129 
157 
-44 
-17 
-185 
100 
128 
156 
-185 
-44 
-212 
101 
129 
157 
-184 
-45 
-213 
